data;
set K:= K1 K2 K3 K4 K5 K6 K7 K8 K9 K10 K11 K12 K13 K14 K15 ;

set F:= F1 F2 F3 ;

set Q:= Q1 Q2 ;

param T:= 45;
param V: 
	K1  K2  K3  K4  K5  K6  K7  K8  K9  K10 K11 K12 K13 K14 K15 :=
Q1	1   1   1   1   1   1   1   1   1   0   0   0   0   0   0   
Q2	0   0   0   0   0   0   0   0   0   1   1   1   1   1   1   
; # if resorce k is of type q

param TF:= 
K1 6
K2 6
K3 6
K4 6
K5 6
K6 6
K7 6
K8 6
K9 6
K10 12
K11 12
K12 12
K13 12
K14 12
K15 12
; # number of continuous time slots resource can fly

param TR:= 
K1 2
K2 2
K3 2
K4 2
K5 2
K6 2
K7 2
K8 2
K9 2
K10 4
K11 4
K12 4
K13 4
K14 4
K15 4
; #  number of continuous time slots resource k needs to rest between flights

param P:= 
K1 36
K2 36
K3 36
K4 36
K5 36
K6 36
K7 36
K8 36
K9 36
K10 36
K11 36
K12 36
K13 36
K14 36
K15 36
; #  number of continuous time slots a pilot can be present including rest times for resource k 

param N:= 
K1 4
K2 4
K3 4
K4 4
K5 4
K6 4
K7 4
K8 4
K9 4
K10 2
K11 2
K12 2
K13 2
K14 2
K15 2
; # max number of flights resource k can fly in the total time period

param A: 
	K1  K2  K3  K4  K5  K6  K7  K8  K9  K10 K11 K12 K13 K14 K15 :=
1	1   1   1   1   1   1   1   1   1   1   1   1   1   1   1   
2	1   1   1   1   1   1   1   1   1   1   1   1   1   1   1   
3	1   1   1   1   1   1   1   1   1   1   1   1   1   1   1   
4	1   1   1   1   1   1   1   1   1   1   1   1   1   1   1   
5	1   1   1   1   1   1   1   1   1   1   1   1   1   1   1   
6	1   1   1   1   1   1   1   1   1   1   1   1   1   1   1   
7	1   1   1   1   1   1   1   1   1   1   1   1   1   1   1   
8	1   1   1   1   1   1   1   1   1   1   1   1   1   1   1   
9	1   1   1   1   1   1   1   1   1   1   1   1   1   1   1   
10	1   1   1   1   1   1   1   1   1   1   1   1   1   1   1   
11	1   1   1   1   1   1   1   1   1   1   1   1   1   1   1   
12	1   1   1   1   1   1   1   1   1   1   1   1   1   1   1   
13	1   1   1   1   1   1   1   1   1   1   1   1   1   1   1   
14	1   1   1   1   1   1   1   1   1   1   1   1   1   1   1   
15	1   1   1   1   1   1   1   1   1   1   1   1   1   1   1   
16	1   1   1   1   1   1   1   1   1   1   1   1   1   1   1   
17	1   1   1   1   1   1   1   1   1   1   1   1   1   1   1   
18	1   1   1   1   1   1   1   1   1   1   1   1   1   1   1   
19	1   1   1   1   1   1   1   1   1   1   1   1   1   1   1   
20	1   1   1   1   1   1   1   1   1   1   1   1   1   1   1   
21	1   1   1   1   1   1   1   1   1   1   1   1   1   1   1   
22	1   1   1   1   1   1   1   1   1   1   1   1   1   1   1   
23	1   1   1   1   1   1   1   1   1   1   1   1   1   1   1   
24	1   1   1   1   1   1   1   1   1   1   1   1   1   1   1   
25	1   1   1   1   1   1   1   1   1   1   1   1   1   1   1   
26	1   1   1   1   1   1   1   1   1   1   1   1   1   1   1   
27	1   1   1   1   1   1   1   1   1   1   1   1   1   1   1   
28	1   1   1   1   1   1   1   1   1   1   1   1   1   1   1   
29	1   1   1   1   1   1   1   1   1   1   1   1   1   1   1   
30	1   1   1   1   1   1   1   1   1   1   1   1   1   1   1   
31	1   1   1   1   1   1   1   1   1   1   1   1   1   1   1   
32	1   1   1   1   1   1   1   1   1   1   1   1   1   1   1   
33	1   1   1   1   1   1   1   1   1   1   1   1   1   1   1   
34	1   1   1   1   1   1   1   1   1   1   1   1   1   1   1   
35	1   1   1   1   1   1   1   1   1   1   1   1   1   1   1   
36	1   1   1   1   1   1   1   1   1   1   1   1   1   1   1   
37	1   1   1   1   1   1   1   1   1   1   1   1   1   1   1   
38	1   1   1   1   1   1   1   1   1   1   1   1   1   1   1   
39	1   1   1   1   1   1   1   1   1   1   1   1   1   1   1   
40	1   1   1   1   1   1   1   1   1   1   1   1   1   1   1   
41	1   1   1   1   1   1   1   1   1   1   1   1   1   1   1   
42	1   1   1   1   1   1   1   1   1   1   1   1   1   1   1   
43	1   1   1   1   1   1   1   1   1   1   1   1   1   1   1   
44	1   1   1   1   1   1   1   1   1   1   1   1   1   1   1   
45	1   1   1   1   1   1   1   1   1   1   1   1   1   1   1   
; # availability of resorce k in time slot t

param B: 
	F1  F2  F3  :=
Q1	0   0   0   
Q2	0   0   0   
; # if front f requires resources of type q

param U: 
	F1  F2  F3  :=
K1	0   0   0   
K2	0   0   0   
K3	0   0   0   
K4	0   0   0   
K5	0   0   0   
K6	0   0   0   
K7	0   0   0   
K8	0   0   0   
K9	0   0   0   
K10	1   1   1   
K11	1   1   1   
K12	2   2   2   
K13	2   2   2   
K14	0   0   0   
K15	0   0   0   
; # transit time of resource

param C:= 
K1 900
K2 900
K3 900
K4 900
K5 900
K6 1500
K7 1500
K8 4500
K9 4500
K10 5500
K11 5500
K12 5500
K13 5500
K14 5500
K15 5500
; #  water capacity of resource k

param S:= 
F1 9
F2 9
F3 10
; # max number of resources that can fly at front f in the same time slot

param D:= 

[*,*,F1 ]:  K1    K2    K3    K4    K5    K6    K7    K8    K9    K10   K11   K12   K13   K14   K15   :=
1           1.90  1.90  1.90  1.90  1.90  1.90  1.90  1.52  1.52  1.14  1.14  1.14  1.14  1.14  1.14  
2           1.90  1.90  1.90  1.90  1.90  1.90  1.90  1.52  1.52  1.14  1.14  1.14  1.14  1.14  1.14  
3           1.90  1.90  1.90  1.90  1.90  1.90  1.90  1.52  1.52  1.14  1.14  1.14  1.14  1.14  1.14  
4           1.90  1.90  1.90  1.90  1.90  1.90  1.90  1.52  1.52  1.14  1.14  1.14  1.14  1.14  1.14  
5           1.90  1.90  1.90  1.90  1.90  1.90  1.90  1.52  1.52  1.14  1.14  1.14  1.14  1.14  1.14  
6           1.90  1.90  1.90  1.90  1.90  1.90  1.90  1.52  1.52  1.14  1.14  1.14  1.14  1.14  1.14  
7           1.90  1.90  1.90  1.90  1.90  1.90  1.90  1.52  1.52  1.14  1.14  1.14  1.14  1.14  1.14  
8           1.90  1.90  1.90  1.90  1.90  1.90  1.90  1.52  1.52  1.14  1.14  1.14  1.14  1.14  1.14  
9           1.90  1.90  1.90  1.90  1.90  1.90  1.90  1.52  1.52  1.14  1.14  1.14  1.14  1.14  1.14  
10          1.90  1.90  1.90  1.90  1.90  1.90  1.90  1.52  1.52  1.14  1.14  1.14  1.14  1.14  1.14  
11          1.90  1.90  1.90  1.90  1.90  1.90  1.90  1.52  1.52  1.14  1.14  1.14  1.14  1.14  1.14  
12          1.90  1.90  1.90  1.90  1.90  1.90  1.90  1.52  1.52  1.14  1.14  1.14  1.14  1.14  1.14  
13          1.90  1.90  1.90  1.90  1.90  1.90  1.90  1.52  1.52  1.14  1.14  1.14  1.14  1.14  1.14  
14          1.90  1.90  1.90  1.90  1.90  1.90  1.90  1.52  1.52  1.14  1.14  1.14  1.14  1.14  1.14  
15          1.90  1.90  1.90  1.90  1.90  1.90  1.90  1.52  1.52  1.14  1.14  1.14  1.14  1.14  1.14  
16          1.90  1.90  1.90  1.90  1.90  1.90  1.90  1.52  1.52  1.14  1.14  1.14  1.14  1.14  1.14  
17          1.90  1.90  1.90  1.90  1.90  1.90  1.90  1.52  1.52  1.14  1.14  1.14  1.14  1.14  1.14  
18          1.90  1.90  1.90  1.90  1.90  1.90  1.90  1.52  1.52  1.14  1.14  1.14  1.14  1.14  1.14  
19          1.90  1.90  1.90  1.90  1.90  1.90  1.90  1.52  1.52  1.14  1.14  1.14  1.14  1.14  1.14  
20          1.90  1.90  1.90  1.90  1.90  1.90  1.90  1.52  1.52  1.14  1.14  1.14  1.14  1.14  1.14  
21          1.90  1.90  1.90  1.90  1.90  1.90  1.90  1.52  1.52  1.14  1.14  1.14  1.14  1.14  1.14  
22          1.90  1.90  1.90  1.90  1.90  1.90  1.90  1.52  1.52  1.14  1.14  1.14  1.14  1.14  1.14  
23          1.90  1.90  1.90  1.90  1.90  1.90  1.90  1.52  1.52  1.14  1.14  1.14  1.14  1.14  1.14  
24          1.90  1.90  1.90  1.90  1.90  1.90  1.90  1.52  1.52  1.14  1.14  1.14  1.14  1.14  1.14  
25          1.81  1.81  1.81  1.81  1.81  1.81  1.81  1.44  1.44  1.08  1.08  1.08  1.08  1.08  1.08  
26          1.81  1.81  1.81  1.81  1.81  1.81  1.81  1.44  1.44  1.08  1.08  1.08  1.08  1.08  1.08  
27          1.81  1.81  1.81  1.81  1.81  1.81  1.81  1.44  1.44  1.08  1.08  1.08  1.08  1.08  1.08  
28          1.81  1.81  1.81  1.81  1.81  1.81  1.81  1.44  1.44  1.08  1.08  1.08  1.08  1.08  1.08  
29          1.81  1.81  1.81  1.81  1.81  1.81  1.81  1.44  1.44  1.08  1.08  1.08  1.08  1.08  1.08  
30          1.81  1.81  1.81  1.81  1.81  1.81  1.81  1.44  1.44  1.08  1.08  1.08  1.08  1.08  1.08  
31          1.81  1.81  1.81  1.81  1.81  1.81  1.81  1.44  1.44  1.08  1.08  1.08  1.08  1.08  1.08  
32          1.81  1.81  1.81  1.81  1.81  1.81  1.81  1.44  1.44  1.08  1.08  1.08  1.08  1.08  1.08  
33          1.81  1.81  1.81  1.81  1.81  1.81  1.81  1.44  1.44  1.08  1.08  1.08  1.08  1.08  1.08  
34          1.90  1.90  1.90  1.90  1.90  1.90  1.90  1.52  1.52  1.14  1.14  1.14  1.14  1.14  1.14  
35          1.90  1.90  1.90  1.90  1.90  1.90  1.90  1.52  1.52  1.14  1.14  1.14  1.14  1.14  1.14  
36          1.90  1.90  1.90  1.90  1.90  1.90  1.90  1.52  1.52  1.14  1.14  1.14  1.14  1.14  1.14  
37          1.90  1.90  1.90  1.90  1.90  1.90  1.90  1.52  1.52  1.14  1.14  1.14  1.14  1.14  1.14  
38          1.90  1.90  1.90  1.90  1.90  1.90  1.90  1.52  1.52  1.14  1.14  1.14  1.14  1.14  1.14  
39          1.90  1.90  1.90  1.90  1.90  1.90  1.90  1.52  1.52  1.14  1.14  1.14  1.14  1.14  1.14  
40          1.90  1.90  1.90  1.90  1.90  1.90  1.90  1.52  1.52  1.14  1.14  1.14  1.14  1.14  1.14  
41          1.90  1.90  1.90  1.90  1.90  1.90  1.90  1.52  1.52  1.14  1.14  1.14  1.14  1.14  1.14  
42          1.90  1.90  1.90  1.90  1.90  1.90  1.90  1.52  1.52  1.14  1.14  1.14  1.14  1.14  1.14  
43          1.90  1.90  1.90  1.90  1.90  1.90  1.90  1.52  1.52  1.14  1.14  1.14  1.14  1.14  1.14  
44          1.90  1.90  1.90  1.90  1.90  1.90  1.90  1.52  1.52  1.14  1.14  1.14  1.14  1.14  1.14  
45          1.90  1.90  1.90  1.90  1.90  1.90  1.90  1.52  1.52  1.14  1.14  1.14  1.14  1.14  1.14  

[*,*,F2 ]:  K1    K2    K3    K4    K5    K6    K7    K8    K9    K10   K11   K12   K13   K14   K15   :=
1           1.90  1.90  1.90  1.90  1.90  1.90  1.90  1.52  1.52  1.14  1.14  1.14  1.14  1.14  1.14  
2           1.90  1.90  1.90  1.90  1.90  1.90  1.90  1.52  1.52  1.14  1.14  1.14  1.14  1.14  1.14  
3           1.90  1.90  1.90  1.90  1.90  1.90  1.90  1.52  1.52  1.14  1.14  1.14  1.14  1.14  1.14  
4           1.90  1.90  1.90  1.90  1.90  1.90  1.90  1.52  1.52  1.14  1.14  1.14  1.14  1.14  1.14  
5           1.90  1.90  1.90  1.90  1.90  1.90  1.90  1.52  1.52  1.14  1.14  1.14  1.14  1.14  1.14  
6           1.90  1.90  1.90  1.90  1.90  1.90  1.90  1.52  1.52  1.14  1.14  1.14  1.14  1.14  1.14  
7           1.90  1.90  1.90  1.90  1.90  1.90  1.90  1.52  1.52  1.14  1.14  1.14  1.14  1.14  1.14  
8           1.90  1.90  1.90  1.90  1.90  1.90  1.90  1.52  1.52  1.14  1.14  1.14  1.14  1.14  1.14  
9           1.90  1.90  1.90  1.90  1.90  1.90  1.90  1.52  1.52  1.14  1.14  1.14  1.14  1.14  1.14  
10          1.90  1.90  1.90  1.90  1.90  1.90  1.90  1.52  1.52  1.14  1.14  1.14  1.14  1.14  1.14  
11          1.90  1.90  1.90  1.90  1.90  1.90  1.90  1.52  1.52  1.14  1.14  1.14  1.14  1.14  1.14  
12          1.90  1.90  1.90  1.90  1.90  1.90  1.90  1.52  1.52  1.14  1.14  1.14  1.14  1.14  1.14  
13          1.90  1.90  1.90  1.90  1.90  1.90  1.90  1.52  1.52  1.14  1.14  1.14  1.14  1.14  1.14  
14          1.90  1.90  1.90  1.90  1.90  1.90  1.90  1.52  1.52  1.14  1.14  1.14  1.14  1.14  1.14  
15          1.90  1.90  1.90  1.90  1.90  1.90  1.90  1.52  1.52  1.14  1.14  1.14  1.14  1.14  1.14  
16          1.90  1.90  1.90  1.90  1.90  1.90  1.90  1.52  1.52  1.14  1.14  1.14  1.14  1.14  1.14  
17          1.90  1.90  1.90  1.90  1.90  1.90  1.90  1.52  1.52  1.14  1.14  1.14  1.14  1.14  1.14  
18          1.90  1.90  1.90  1.90  1.90  1.90  1.90  1.52  1.52  1.14  1.14  1.14  1.14  1.14  1.14  
19          1.90  1.90  1.90  1.90  1.90  1.90  1.90  1.52  1.52  1.14  1.14  1.14  1.14  1.14  1.14  
20          1.90  1.90  1.90  1.90  1.90  1.90  1.90  1.52  1.52  1.14  1.14  1.14  1.14  1.14  1.14  
21          1.90  1.90  1.90  1.90  1.90  1.90  1.90  1.52  1.52  1.14  1.14  1.14  1.14  1.14  1.14  
22          1.90  1.90  1.90  1.90  1.90  1.90  1.90  1.52  1.52  1.14  1.14  1.14  1.14  1.14  1.14  
23          1.90  1.90  1.90  1.90  1.90  1.90  1.90  1.52  1.52  1.14  1.14  1.14  1.14  1.14  1.14  
24          1.90  1.90  1.90  1.90  1.90  1.90  1.90  1.52  1.52  1.14  1.14  1.14  1.14  1.14  1.14  
25          1.81  1.81  1.81  1.81  1.81  1.81  1.81  1.44  1.44  1.08  1.08  1.08  1.08  1.08  1.08  
26          1.81  1.81  1.81  1.81  1.81  1.81  1.81  1.44  1.44  1.08  1.08  1.08  1.08  1.08  1.08  
27          1.81  1.81  1.81  1.81  1.81  1.81  1.81  1.44  1.44  1.08  1.08  1.08  1.08  1.08  1.08  
28          1.81  1.81  1.81  1.81  1.81  1.81  1.81  1.44  1.44  1.08  1.08  1.08  1.08  1.08  1.08  
29          1.81  1.81  1.81  1.81  1.81  1.81  1.81  1.44  1.44  1.08  1.08  1.08  1.08  1.08  1.08  
30          1.81  1.81  1.81  1.81  1.81  1.81  1.81  1.44  1.44  1.08  1.08  1.08  1.08  1.08  1.08  
31          1.81  1.81  1.81  1.81  1.81  1.81  1.81  1.44  1.44  1.08  1.08  1.08  1.08  1.08  1.08  
32          1.81  1.81  1.81  1.81  1.81  1.81  1.81  1.44  1.44  1.08  1.08  1.08  1.08  1.08  1.08  
33          1.81  1.81  1.81  1.81  1.81  1.81  1.81  1.44  1.44  1.08  1.08  1.08  1.08  1.08  1.08  
34          1.90  1.90  1.90  1.90  1.90  1.90  1.90  1.52  1.52  1.14  1.14  1.14  1.14  1.14  1.14  
35          1.90  1.90  1.90  1.90  1.90  1.90  1.90  1.52  1.52  1.14  1.14  1.14  1.14  1.14  1.14  
36          1.90  1.90  1.90  1.90  1.90  1.90  1.90  1.52  1.52  1.14  1.14  1.14  1.14  1.14  1.14  
37          1.90  1.90  1.90  1.90  1.90  1.90  1.90  1.52  1.52  1.14  1.14  1.14  1.14  1.14  1.14  
38          1.90  1.90  1.90  1.90  1.90  1.90  1.90  1.52  1.52  1.14  1.14  1.14  1.14  1.14  1.14  
39          1.90  1.90  1.90  1.90  1.90  1.90  1.90  1.52  1.52  1.14  1.14  1.14  1.14  1.14  1.14  
40          1.90  1.90  1.90  1.90  1.90  1.90  1.90  1.52  1.52  1.14  1.14  1.14  1.14  1.14  1.14  
41          1.90  1.90  1.90  1.90  1.90  1.90  1.90  1.52  1.52  1.14  1.14  1.14  1.14  1.14  1.14  
42          1.90  1.90  1.90  1.90  1.90  1.90  1.90  1.52  1.52  1.14  1.14  1.14  1.14  1.14  1.14  
43          1.90  1.90  1.90  1.90  1.90  1.90  1.90  1.52  1.52  1.14  1.14  1.14  1.14  1.14  1.14  
44          1.90  1.90  1.90  1.90  1.90  1.90  1.90  1.52  1.52  1.14  1.14  1.14  1.14  1.14  1.14  
45          1.90  1.90  1.90  1.90  1.90  1.90  1.90  1.52  1.52  1.14  1.14  1.14  1.14  1.14  1.14  

[*,*,F3 ]:  K1    K2    K3    K4    K5    K6    K7    K8    K9    K10   K11   K12   K13   K14   K15   :=
1           1.72  1.72  1.72  1.72  1.72  1.72  1.72  1.37  1.37  1.03  1.03  1.03  1.03  1.03  1.03  
2           1.72  1.72  1.72  1.72  1.72  1.72  1.72  1.37  1.37  1.03  1.03  1.03  1.03  1.03  1.03  
3           1.72  1.72  1.72  1.72  1.72  1.72  1.72  1.37  1.37  1.03  1.03  1.03  1.03  1.03  1.03  
4           1.72  1.72  1.72  1.72  1.72  1.72  1.72  1.37  1.37  1.03  1.03  1.03  1.03  1.03  1.03  
5           1.72  1.72  1.72  1.72  1.72  1.72  1.72  1.37  1.37  1.03  1.03  1.03  1.03  1.03  1.03  
6           1.72  1.72  1.72  1.72  1.72  1.72  1.72  1.37  1.37  1.03  1.03  1.03  1.03  1.03  1.03  
7           1.72  1.72  1.72  1.72  1.72  1.72  1.72  1.37  1.37  1.03  1.03  1.03  1.03  1.03  1.03  
8           1.72  1.72  1.72  1.72  1.72  1.72  1.72  1.37  1.37  1.03  1.03  1.03  1.03  1.03  1.03  
9           1.72  1.72  1.72  1.72  1.72  1.72  1.72  1.37  1.37  1.03  1.03  1.03  1.03  1.03  1.03  
10          1.72  1.72  1.72  1.72  1.72  1.72  1.72  1.37  1.37  1.03  1.03  1.03  1.03  1.03  1.03  
11          1.72  1.72  1.72  1.72  1.72  1.72  1.72  1.37  1.37  1.03  1.03  1.03  1.03  1.03  1.03  
12          1.72  1.72  1.72  1.72  1.72  1.72  1.72  1.37  1.37  1.03  1.03  1.03  1.03  1.03  1.03  
13          1.72  1.72  1.72  1.72  1.72  1.72  1.72  1.37  1.37  1.03  1.03  1.03  1.03  1.03  1.03  
14          1.72  1.72  1.72  1.72  1.72  1.72  1.72  1.37  1.37  1.03  1.03  1.03  1.03  1.03  1.03  
15          1.72  1.72  1.72  1.72  1.72  1.72  1.72  1.37  1.37  1.03  1.03  1.03  1.03  1.03  1.03  
16          1.72  1.72  1.72  1.72  1.72  1.72  1.72  1.37  1.37  1.03  1.03  1.03  1.03  1.03  1.03  
17          1.72  1.72  1.72  1.72  1.72  1.72  1.72  1.37  1.37  1.03  1.03  1.03  1.03  1.03  1.03  
18          1.72  1.72  1.72  1.72  1.72  1.72  1.72  1.37  1.37  1.03  1.03  1.03  1.03  1.03  1.03  
19          1.72  1.72  1.72  1.72  1.72  1.72  1.72  1.37  1.37  1.03  1.03  1.03  1.03  1.03  1.03  
20          1.72  1.72  1.72  1.72  1.72  1.72  1.72  1.37  1.37  1.03  1.03  1.03  1.03  1.03  1.03  
21          1.72  1.72  1.72  1.72  1.72  1.72  1.72  1.37  1.37  1.03  1.03  1.03  1.03  1.03  1.03  
22          1.72  1.72  1.72  1.72  1.72  1.72  1.72  1.37  1.37  1.03  1.03  1.03  1.03  1.03  1.03  
23          1.72  1.72  1.72  1.72  1.72  1.72  1.72  1.37  1.37  1.03  1.03  1.03  1.03  1.03  1.03  
24          1.72  1.72  1.72  1.72  1.72  1.72  1.72  1.37  1.37  1.03  1.03  1.03  1.03  1.03  1.03  
25          1.63  1.63  1.63  1.63  1.63  1.63  1.63  1.30  1.30  0.98  0.98  0.98  0.98  0.98  0.98  
26          1.63  1.63  1.63  1.63  1.63  1.63  1.63  1.30  1.30  0.98  0.98  0.98  0.98  0.98  0.98  
27          1.63  1.63  1.63  1.63  1.63  1.63  1.63  1.30  1.30  0.98  0.98  0.98  0.98  0.98  0.98  
28          1.63  1.63  1.63  1.63  1.63  1.63  1.63  1.30  1.30  0.98  0.98  0.98  0.98  0.98  0.98  
29          1.63  1.63  1.63  1.63  1.63  1.63  1.63  1.30  1.30  0.98  0.98  0.98  0.98  0.98  0.98  
30          1.63  1.63  1.63  1.63  1.63  1.63  1.63  1.30  1.30  0.98  0.98  0.98  0.98  0.98  0.98  
31          1.63  1.63  1.63  1.63  1.63  1.63  1.63  1.30  1.30  0.98  0.98  0.98  0.98  0.98  0.98  
32          1.63  1.63  1.63  1.63  1.63  1.63  1.63  1.30  1.30  0.98  0.98  0.98  0.98  0.98  0.98  
33          1.63  1.63  1.63  1.63  1.63  1.63  1.63  1.30  1.30  0.98  0.98  0.98  0.98  0.98  0.98  
34          1.72  1.72  1.72  1.72  1.72  1.72  1.72  1.37  1.37  1.03  1.03  1.03  1.03  1.03  1.03  
35          1.72  1.72  1.72  1.72  1.72  1.72  1.72  1.37  1.37  1.03  1.03  1.03  1.03  1.03  1.03  
36          1.72  1.72  1.72  1.72  1.72  1.72  1.72  1.37  1.37  1.03  1.03  1.03  1.03  1.03  1.03  
37          1.72  1.72  1.72  1.72  1.72  1.72  1.72  1.37  1.37  1.03  1.03  1.03  1.03  1.03  1.03  
38          1.72  1.72  1.72  1.72  1.72  1.72  1.72  1.37  1.37  1.03  1.03  1.03  1.03  1.03  1.03  
39          1.72  1.72  1.72  1.72  1.72  1.72  1.72  1.37  1.37  1.03  1.03  1.03  1.03  1.03  1.03  
40          1.72  1.72  1.72  1.72  1.72  1.72  1.72  1.37  1.37  1.03  1.03  1.03  1.03  1.03  1.03  
41          1.72  1.72  1.72  1.72  1.72  1.72  1.72  1.37  1.37  1.03  1.03  1.03  1.03  1.03  1.03  
42          1.72  1.72  1.72  1.72  1.72  1.72  1.72  1.37  1.37  1.03  1.03  1.03  1.03  1.03  1.03  
43          1.72  1.72  1.72  1.72  1.72  1.72  1.72  1.37  1.37  1.03  1.03  1.03  1.03  1.03  1.03  
44          1.72  1.72  1.72  1.72  1.72  1.72  1.72  1.37  1.37  1.03  1.03  1.03  1.03  1.03  1.03  
45          1.72  1.72  1.72  1.72  1.72  1.72  1.72  1.37  1.37  1.03  1.03  1.03  1.03  1.03  1.03  
; # downloads resource k can do at front f in time t if intermediate time slot

param E:= 

[*,*,F1 ]:  K1    K2    K3    K4    K5    K6    K7    K8    K9    K10   K11   K12   K13   K14   K15   :=
1           0.21  0.40  0.29  0.67  0.51  0.40  0.86  0.03  0.09  0.41  0.31  0.09  0.08  0.46  0.24  
2           0.21  0.40  0.29  0.67  0.51  0.40  0.86  0.03  0.09  0.41  0.31  0.09  0.08  0.46  0.24  
3           0.21  0.40  0.29  0.67  0.51  0.40  0.86  0.03  0.09  0.41  0.31  0.09  0.08  0.46  0.24  
4           0.21  0.40  0.29  0.67  0.51  0.40  0.86  0.03  0.09  0.41  0.31  0.09  0.08  0.46  0.24  
5           0.21  0.40  0.29  0.67  0.51  0.40  0.86  0.03  0.09  0.41  0.31  0.09  0.08  0.46  0.24  
6           0.21  0.40  0.29  0.67  0.51  0.40  0.86  0.03  0.09  0.41  0.31  0.09  0.08  0.46  0.24  
7           0.21  0.40  0.29  0.67  0.51  0.40  0.86  0.03  0.09  0.41  0.31  0.09  0.08  0.46  0.24  
8           0.21  0.40  0.29  0.67  0.51  0.40  0.86  0.03  0.09  0.41  0.31  0.09  0.08  0.46  0.24  
9           0.21  0.40  0.29  0.67  0.51  0.40  0.86  0.03  0.09  0.41  0.31  0.09  0.08  0.46  0.24  
10          0.21  0.40  0.29  0.67  0.51  0.40  0.86  0.03  0.09  0.41  0.31  0.09  0.08  0.46  0.24  
11          0.21  0.40  0.29  0.67  0.51  0.40  0.86  0.03  0.09  0.41  0.31  0.09  0.08  0.46  0.24  
12          0.21  0.40  0.29  0.67  0.51  0.40  0.86  0.03  0.09  0.41  0.31  0.09  0.08  0.46  0.24  
13          0.21  0.40  0.29  0.67  0.51  0.40  0.86  0.03  0.09  0.41  0.31  0.09  0.08  0.46  0.24  
14          0.21  0.40  0.29  0.67  0.51  0.40  0.86  0.03  0.09  0.41  0.31  0.09  0.08  0.46  0.24  
15          0.21  0.40  0.29  0.67  0.51  0.40  0.86  0.03  0.09  0.41  0.31  0.09  0.08  0.46  0.24  
16          0.21  0.40  0.29  0.67  0.51  0.40  0.86  0.03  0.09  0.41  0.31  0.09  0.08  0.46  0.24  
17          0.21  0.40  0.29  0.67  0.51  0.40  0.86  0.03  0.09  0.41  0.31  0.09  0.08  0.46  0.24  
18          0.21  0.40  0.29  0.67  0.51  0.40  0.86  0.03  0.09  0.41  0.31  0.09  0.08  0.46  0.24  
19          0.21  0.40  0.29  0.67  0.51  0.40  0.86  0.03  0.09  0.41  0.31  0.09  0.08  0.46  0.24  
20          0.21  0.40  0.29  0.67  0.51  0.40  0.86  0.03  0.09  0.41  0.31  0.09  0.08  0.46  0.24  
21          0.21  0.40  0.29  0.67  0.51  0.40  0.86  0.03  0.09  0.41  0.31  0.09  0.08  0.46  0.24  
22          0.21  0.40  0.29  0.67  0.51  0.40  0.86  0.03  0.09  0.41  0.31  0.09  0.08  0.46  0.24  
23          0.21  0.40  0.29  0.67  0.51  0.40  0.86  0.03  0.09  0.41  0.31  0.09  0.08  0.46  0.24  
24          0.21  0.40  0.29  0.67  0.51  0.40  0.86  0.03  0.09  0.41  0.31  0.09  0.08  0.46  0.24  
25          0.20  0.38  0.27  0.63  0.49  0.38  0.81  0.03  0.09  0.39  0.29  0.09  0.08  0.43  0.23  
26          0.20  0.38  0.27  0.63  0.49  0.38  0.81  0.03  0.09  0.39  0.29  0.09  0.08  0.43  0.23  
27          0.20  0.38  0.27  0.63  0.49  0.38  0.81  0.03  0.09  0.39  0.29  0.09  0.08  0.43  0.23  
28          0.20  0.38  0.27  0.63  0.49  0.38  0.81  0.03  0.09  0.39  0.29  0.09  0.08  0.43  0.23  
29          0.20  0.38  0.27  0.63  0.49  0.38  0.81  0.03  0.09  0.39  0.29  0.09  0.08  0.43  0.23  
30          0.20  0.38  0.27  0.63  0.49  0.38  0.81  0.03  0.09  0.39  0.29  0.09  0.08  0.43  0.23  
31          0.20  0.38  0.27  0.63  0.49  0.38  0.81  0.03  0.09  0.39  0.29  0.09  0.08  0.43  0.23  
32          0.20  0.38  0.27  0.63  0.49  0.38  0.81  0.03  0.09  0.39  0.29  0.09  0.08  0.43  0.23  
33          0.20  0.38  0.27  0.63  0.49  0.38  0.81  0.03  0.09  0.39  0.29  0.09  0.08  0.43  0.23  
34          0.21  0.40  0.29  0.67  0.51  0.40  0.86  0.03  0.09  0.41  0.31  0.09  0.08  0.46  0.24  
35          0.21  0.40  0.29  0.67  0.51  0.40  0.86  0.03  0.09  0.41  0.31  0.09  0.08  0.46  0.24  
36          0.21  0.40  0.29  0.67  0.51  0.40  0.86  0.03  0.09  0.41  0.31  0.09  0.08  0.46  0.24  
37          0.21  0.40  0.29  0.67  0.51  0.40  0.86  0.03  0.09  0.41  0.31  0.09  0.08  0.46  0.24  
38          0.21  0.40  0.29  0.67  0.51  0.40  0.86  0.03  0.09  0.41  0.31  0.09  0.08  0.46  0.24  
39          0.21  0.40  0.29  0.67  0.51  0.40  0.86  0.03  0.09  0.41  0.31  0.09  0.08  0.46  0.24  
40          0.21  0.40  0.29  0.67  0.51  0.40  0.86  0.03  0.09  0.41  0.31  0.09  0.08  0.46  0.24  
41          0.21  0.40  0.29  0.67  0.51  0.40  0.86  0.03  0.09  0.41  0.31  0.09  0.08  0.46  0.24  
42          0.21  0.40  0.29  0.67  0.51  0.40  0.86  0.03  0.09  0.41  0.31  0.09  0.08  0.46  0.24  
43          0.21  0.40  0.29  0.67  0.51  0.40  0.86  0.03  0.09  0.41  0.31  0.09  0.08  0.46  0.24  
44          0.21  0.40  0.29  0.67  0.51  0.40  0.86  0.03  0.09  0.41  0.31  0.09  0.08  0.46  0.24  
45          0.21  0.40  0.29  0.67  0.51  0.40  0.86  0.03  0.09  0.41  0.31  0.09  0.08  0.46  0.24  

[*,*,F2 ]:  K1    K2    K3    K4    K5    K6    K7    K8    K9    K10   K11   K12   K13   K14   K15   :=
1           0.29  0.32  0.27  0.72  0.53  0.53  0.74  0.05  0.03  0.35  0.35  0.16  0.00  0.49  0.13  
2           0.29  0.32  0.27  0.72  0.53  0.53  0.74  0.05  0.03  0.35  0.35  0.16  0.00  0.49  0.13  
3           0.29  0.32  0.27  0.72  0.53  0.53  0.74  0.05  0.03  0.35  0.35  0.16  0.00  0.49  0.13  
4           0.29  0.32  0.27  0.72  0.53  0.53  0.74  0.05  0.03  0.35  0.35  0.16  0.00  0.49  0.13  
5           0.29  0.32  0.27  0.72  0.53  0.53  0.74  0.05  0.03  0.35  0.35  0.16  0.00  0.49  0.13  
6           0.29  0.32  0.27  0.72  0.53  0.53  0.74  0.05  0.03  0.35  0.35  0.16  0.00  0.49  0.13  
7           0.29  0.32  0.27  0.72  0.53  0.53  0.74  0.05  0.03  0.35  0.35  0.16  0.00  0.49  0.13  
8           0.29  0.32  0.27  0.72  0.53  0.53  0.74  0.05  0.03  0.35  0.35  0.16  0.00  0.49  0.13  
9           0.29  0.32  0.27  0.72  0.53  0.53  0.74  0.05  0.03  0.35  0.35  0.16  0.00  0.49  0.13  
10          0.29  0.32  0.27  0.72  0.53  0.53  0.74  0.05  0.03  0.35  0.35  0.16  0.00  0.49  0.13  
11          0.29  0.32  0.27  0.72  0.53  0.53  0.74  0.05  0.03  0.35  0.35  0.16  0.00  0.49  0.13  
12          0.29  0.32  0.27  0.72  0.53  0.53  0.74  0.05  0.03  0.35  0.35  0.16  0.00  0.49  0.13  
13          0.29  0.32  0.27  0.72  0.53  0.53  0.74  0.05  0.03  0.35  0.35  0.16  0.00  0.49  0.13  
14          0.29  0.32  0.27  0.72  0.53  0.53  0.74  0.05  0.03  0.35  0.35  0.16  0.00  0.49  0.13  
15          0.29  0.32  0.27  0.72  0.53  0.53  0.74  0.05  0.03  0.35  0.35  0.16  0.00  0.49  0.13  
16          0.29  0.32  0.27  0.72  0.53  0.53  0.74  0.05  0.03  0.35  0.35  0.16  0.00  0.49  0.13  
17          0.29  0.32  0.27  0.72  0.53  0.53  0.74  0.05  0.03  0.35  0.35  0.16  0.00  0.49  0.13  
18          0.29  0.32  0.27  0.72  0.53  0.53  0.74  0.05  0.03  0.35  0.35  0.16  0.00  0.49  0.13  
19          0.29  0.32  0.27  0.72  0.53  0.53  0.74  0.05  0.03  0.35  0.35  0.16  0.00  0.49  0.13  
20          0.29  0.32  0.27  0.72  0.53  0.53  0.74  0.05  0.03  0.35  0.35  0.16  0.00  0.49  0.13  
21          0.29  0.32  0.27  0.72  0.53  0.53  0.74  0.05  0.03  0.35  0.35  0.16  0.00  0.49  0.13  
22          0.29  0.32  0.27  0.72  0.53  0.53  0.74  0.05  0.03  0.35  0.35  0.16  0.00  0.49  0.13  
23          0.29  0.32  0.27  0.72  0.53  0.53  0.74  0.05  0.03  0.35  0.35  0.16  0.00  0.49  0.13  
24          0.29  0.32  0.27  0.72  0.53  0.53  0.74  0.05  0.03  0.35  0.35  0.16  0.00  0.49  0.13  
25          0.27  0.31  0.25  0.69  0.51  0.51  0.71  0.04  0.03  0.34  0.34  0.15  0.00  0.47  0.12  
26          0.27  0.31  0.25  0.69  0.51  0.51  0.71  0.04  0.03  0.34  0.34  0.15  0.00  0.47  0.12  
27          0.27  0.31  0.25  0.69  0.51  0.51  0.71  0.04  0.03  0.34  0.34  0.15  0.00  0.47  0.12  
28          0.27  0.31  0.25  0.69  0.51  0.51  0.71  0.04  0.03  0.34  0.34  0.15  0.00  0.47  0.12  
29          0.27  0.31  0.25  0.69  0.51  0.51  0.71  0.04  0.03  0.34  0.34  0.15  0.00  0.47  0.12  
30          0.27  0.31  0.25  0.69  0.51  0.51  0.71  0.04  0.03  0.34  0.34  0.15  0.00  0.47  0.12  
31          0.27  0.31  0.25  0.69  0.51  0.51  0.71  0.04  0.03  0.34  0.34  0.15  0.00  0.47  0.12  
32          0.27  0.31  0.25  0.69  0.51  0.51  0.71  0.04  0.03  0.34  0.34  0.15  0.00  0.47  0.12  
33          0.27  0.31  0.25  0.69  0.51  0.51  0.71  0.04  0.03  0.34  0.34  0.15  0.00  0.47  0.12  
34          0.29  0.32  0.27  0.72  0.53  0.53  0.74  0.05  0.03  0.35  0.35  0.16  0.00  0.49  0.13  
35          0.29  0.32  0.27  0.72  0.53  0.53  0.74  0.05  0.03  0.35  0.35  0.16  0.00  0.49  0.13  
36          0.29  0.32  0.27  0.72  0.53  0.53  0.74  0.05  0.03  0.35  0.35  0.16  0.00  0.49  0.13  
37          0.29  0.32  0.27  0.72  0.53  0.53  0.74  0.05  0.03  0.35  0.35  0.16  0.00  0.49  0.13  
38          0.29  0.32  0.27  0.72  0.53  0.53  0.74  0.05  0.03  0.35  0.35  0.16  0.00  0.49  0.13  
39          0.29  0.32  0.27  0.72  0.53  0.53  0.74  0.05  0.03  0.35  0.35  0.16  0.00  0.49  0.13  
40          0.29  0.32  0.27  0.72  0.53  0.53  0.74  0.05  0.03  0.35  0.35  0.16  0.00  0.49  0.13  
41          0.29  0.32  0.27  0.72  0.53  0.53  0.74  0.05  0.03  0.35  0.35  0.16  0.00  0.49  0.13  
42          0.29  0.32  0.27  0.72  0.53  0.53  0.74  0.05  0.03  0.35  0.35  0.16  0.00  0.49  0.13  
43          0.29  0.32  0.27  0.72  0.53  0.53  0.74  0.05  0.03  0.35  0.35  0.16  0.00  0.49  0.13  
44          0.29  0.32  0.27  0.72  0.53  0.53  0.74  0.05  0.03  0.35  0.35  0.16  0.00  0.49  0.13  
45          0.29  0.32  0.27  0.72  0.53  0.53  0.74  0.05  0.03  0.35  0.35  0.16  0.00  0.49  0.13  

[*,*,F3 ]:  K1    K2    K3    K4    K5    K6    K7    K8    K9    K10   K11   K12   K13   K14   K15   :=
1           0.26  0.34  0.28  0.60  0.55  0.53  0.76  0.04  0.11  0.42  0.26  0.16  0.02  0.46  0.21  
2           0.26  0.34  0.28  0.60  0.55  0.53  0.76  0.04  0.11  0.42  0.26  0.16  0.02  0.46  0.21  
3           0.26  0.34  0.28  0.60  0.55  0.53  0.76  0.04  0.11  0.42  0.26  0.16  0.02  0.46  0.21  
4           0.26  0.34  0.28  0.60  0.55  0.53  0.76  0.04  0.11  0.42  0.26  0.16  0.02  0.46  0.21  
5           0.26  0.34  0.28  0.60  0.55  0.53  0.76  0.04  0.11  0.42  0.26  0.16  0.02  0.46  0.21  
6           0.26  0.34  0.28  0.60  0.55  0.53  0.76  0.04  0.11  0.42  0.26  0.16  0.02  0.46  0.21  
7           0.26  0.34  0.28  0.60  0.55  0.53  0.76  0.04  0.11  0.42  0.26  0.16  0.02  0.46  0.21  
8           0.26  0.34  0.28  0.60  0.55  0.53  0.76  0.04  0.11  0.42  0.26  0.16  0.02  0.46  0.21  
9           0.26  0.34  0.28  0.60  0.55  0.53  0.76  0.04  0.11  0.42  0.26  0.16  0.02  0.46  0.21  
10          0.26  0.34  0.28  0.60  0.55  0.53  0.76  0.04  0.11  0.42  0.26  0.16  0.02  0.46  0.21  
11          0.26  0.34  0.28  0.60  0.55  0.53  0.76  0.04  0.11  0.42  0.26  0.16  0.02  0.46  0.21  
12          0.26  0.34  0.28  0.60  0.55  0.53  0.76  0.04  0.11  0.42  0.26  0.16  0.02  0.46  0.21  
13          0.26  0.34  0.28  0.60  0.55  0.53  0.76  0.04  0.11  0.42  0.26  0.16  0.02  0.46  0.21  
14          0.26  0.34  0.28  0.60  0.55  0.53  0.76  0.04  0.11  0.42  0.26  0.16  0.02  0.46  0.21  
15          0.26  0.34  0.28  0.60  0.55  0.53  0.76  0.04  0.11  0.42  0.26  0.16  0.02  0.46  0.21  
16          0.26  0.34  0.28  0.60  0.55  0.53  0.76  0.04  0.11  0.42  0.26  0.16  0.02  0.46  0.21  
17          0.26  0.34  0.28  0.60  0.55  0.53  0.76  0.04  0.11  0.42  0.26  0.16  0.02  0.46  0.21  
18          0.26  0.34  0.28  0.60  0.55  0.53  0.76  0.04  0.11  0.42  0.26  0.16  0.02  0.46  0.21  
19          0.26  0.34  0.28  0.60  0.55  0.53  0.76  0.04  0.11  0.42  0.26  0.16  0.02  0.46  0.21  
20          0.26  0.34  0.28  0.60  0.55  0.53  0.76  0.04  0.11  0.42  0.26  0.16  0.02  0.46  0.21  
21          0.26  0.34  0.28  0.60  0.55  0.53  0.76  0.04  0.11  0.42  0.26  0.16  0.02  0.46  0.21  
22          0.26  0.34  0.28  0.60  0.55  0.53  0.76  0.04  0.11  0.42  0.26  0.16  0.02  0.46  0.21  
23          0.26  0.34  0.28  0.60  0.55  0.53  0.76  0.04  0.11  0.42  0.26  0.16  0.02  0.46  0.21  
24          0.26  0.34  0.28  0.60  0.55  0.53  0.76  0.04  0.11  0.42  0.26  0.16  0.02  0.46  0.21  
25          0.25  0.33  0.26  0.57  0.52  0.51  0.72  0.04  0.10  0.40  0.24  0.16  0.02  0.44  0.20  
26          0.25  0.33  0.26  0.57  0.52  0.51  0.72  0.04  0.10  0.40  0.24  0.16  0.02  0.44  0.20  
27          0.25  0.33  0.26  0.57  0.52  0.51  0.72  0.04  0.10  0.40  0.24  0.16  0.02  0.44  0.20  
28          0.25  0.33  0.26  0.57  0.52  0.51  0.72  0.04  0.10  0.40  0.24  0.16  0.02  0.44  0.20  
29          0.25  0.33  0.26  0.57  0.52  0.51  0.72  0.04  0.10  0.40  0.24  0.16  0.02  0.44  0.20  
30          0.25  0.33  0.26  0.57  0.52  0.51  0.72  0.04  0.10  0.40  0.24  0.16  0.02  0.44  0.20  
31          0.25  0.33  0.26  0.57  0.52  0.51  0.72  0.04  0.10  0.40  0.24  0.16  0.02  0.44  0.20  
32          0.25  0.33  0.26  0.57  0.52  0.51  0.72  0.04  0.10  0.40  0.24  0.16  0.02  0.44  0.20  
33          0.25  0.33  0.26  0.57  0.52  0.51  0.72  0.04  0.10  0.40  0.24  0.16  0.02  0.44  0.20  
34          0.26  0.34  0.28  0.60  0.55  0.53  0.76  0.04  0.11  0.42  0.26  0.16  0.02  0.46  0.21  
35          0.26  0.34  0.28  0.60  0.55  0.53  0.76  0.04  0.11  0.42  0.26  0.16  0.02  0.46  0.21  
36          0.26  0.34  0.28  0.60  0.55  0.53  0.76  0.04  0.11  0.42  0.26  0.16  0.02  0.46  0.21  
37          0.26  0.34  0.28  0.60  0.55  0.53  0.76  0.04  0.11  0.42  0.26  0.16  0.02  0.46  0.21  
38          0.26  0.34  0.28  0.60  0.55  0.53  0.76  0.04  0.11  0.42  0.26  0.16  0.02  0.46  0.21  
39          0.26  0.34  0.28  0.60  0.55  0.53  0.76  0.04  0.11  0.42  0.26  0.16  0.02  0.46  0.21  
40          0.26  0.34  0.28  0.60  0.55  0.53  0.76  0.04  0.11  0.42  0.26  0.16  0.02  0.46  0.21  
41          0.26  0.34  0.28  0.60  0.55  0.53  0.76  0.04  0.11  0.42  0.26  0.16  0.02  0.46  0.21  
42          0.26  0.34  0.28  0.60  0.55  0.53  0.76  0.04  0.11  0.42  0.26  0.16  0.02  0.46  0.21  
43          0.26  0.34  0.28  0.60  0.55  0.53  0.76  0.04  0.11  0.42  0.26  0.16  0.02  0.46  0.21  
44          0.26  0.34  0.28  0.60  0.55  0.53  0.76  0.04  0.11  0.42  0.26  0.16  0.02  0.46  0.21  
45          0.26  0.34  0.28  0.60  0.55  0.53  0.76  0.04  0.11  0.42  0.26  0.16  0.02  0.46  0.21  
; # downloads resource k can do at front f in time t if starting or ending flight

param W: 
	F1        F2        F3        :=
1	1395.59   1395.59   1395.59   
2	5582.38   5582.38   5582.38   
3	5582.38   5582.38   5582.38   
4	5582.38   5582.38   5582.38   
5	5582.38   5582.38   5582.38   
6	5582.38   5582.38   5582.38   
7	5582.38   5582.38   5582.38   
8	5582.38   5582.38   5582.38   
9	5582.38   5582.38   5582.38   
10	5582.38   5582.38   5582.38   
11	5582.38   5582.38   5582.38   
12	5582.38   5582.38   5582.38   
13	5582.38   5582.38   5582.38   
14	5582.38   5582.38   5582.38   
15	5582.38   5582.38   5582.38   
16	5582.38   5582.38   5582.38   
17	5582.38   5582.38   5582.38   
18	5582.38   5582.38   5582.38   
19	2481.06   2481.06   2481.06   
20	2481.06   2481.06   2481.06   
21	2481.06   2481.06   2481.06   
22	2481.06   2481.06   2481.06   
23	2481.06   2481.06   2481.06   
24	2481.06   2481.06   2481.06   
25	2481.06   2481.06   2481.06   
26	2481.06   2481.06   2481.06   
27	2481.06   2481.06   2481.06   
28	2481.06   2481.06   2481.06   
29	2481.06   2481.06   2481.06   
30	2481.06   2481.06   2481.06   
31	2481.06   2481.06   2481.06   
32	2481.06   2481.06   2481.06   
33	2481.06   2481.06   2481.06   
34	2481.06   2481.06   2481.06   
35	2481.06   2481.06   2481.06   
36	2481.06   2481.06   2481.06   
37	2481.06   2481.06   2481.06   
38	2481.06   2481.06   2481.06   
39	2481.06   2481.06   2481.06   
40	2481.06   2481.06   2481.06   
41	2481.06   2481.06   2481.06   
42	2481.06   2481.06   2481.06   
43	2481.06   2481.06   2481.06   
44	2481.06   2481.06   2481.06   
45	620.26    620.26    620.26    
; # water needed at front f in time slot t

param M := 100000000; 

param a1:= 10000000;

param a2:= 100;

param a3:= 0.0001;
